! tightOpt ExtOpt XYZfile

* xyzfile 0 21 Fe4S4_last_step.xyz
